(set-info :smt-lib-version 2.6)
(set-logic UFLRA)
(set-info :source |
Generated by: Geoff Sutcliffe
Generated on: 2026-03-11
Generator: TPTPWorld
Application: Benchmarking automated theorem provers
Time limit: 120.0

These benchmarks are translations from the TPTP Library (Thousands of
Problems for Theorem Provers), see http://www.cs.miami.edu/~tptp/

The TPTP is maintained by Geoff Sutcliffe, and he contributed this
selection of benchmarks to SMT-LIB.  They were exported from the
v9.2.1 realease of TPTP.
|)
(set-info :category "industrial")
(set-info :status "unknown")
; SZS status Success
(declare-sort $$unsorted 0)
(declare-fun tptp.pow2 (Real) Bool)
(assert (not (=> (forall ((X Real)) (= (tptp.pow2 X) (or (= X 1.0) (and (<= 2.0 X) (exists ((Y Real)) (and (= (* 2.0 Y) X) (tptp.pow2 Y))))))) (not (tptp.pow2 5.0)))))
(check-sat)
